p cnf 120 576
-1 -43 0
-1 -44 0
43 -43 0
44 -44 0
-15 -49 0
-15 -50 0
49 -49 0
50 -50 0
-29 -55 0
-29 -56 0
55 -55 0
56 -56 0
2 -43 0
2 -44 0
43 -43 0
44 -44 0
16 -49 0
16 -50 0
49 -49 0
50 -50 0
30 -55 0
30 -56 0
55 -55 0
56 -56 0
3 -43 0
3 -44 0
43 -43 0
44 -44 0
17 -49 0
17 -50 0
49 -49 0
50 -50 0
31 -55 0
31 -56 0
55 -55 0
56 -56 0
4 -61 -43 0
-4 61 -43 0
4 61 -44 0
-4 -61 -44 0
18 -61 -49 0
-18 61 -49 0
18 61 -50 0
-18 -61 -50 0
32 -61 -55 0
-32 61 -55 0
32 61 -56 0
-32 -61 -56 0
5 -43 0
5 -44 0
43 -43 0
44 -44 0
19 -49 0
19 -50 0
49 -49 0
50 -50 0
33 -55 0
33 -56 0
55 -55 0
56 -56 0
-6 -43 0
-6 -44 0
43 -43 0
44 -44 0
-20 -49 0
-20 -50 0
49 -49 0
50 -50 0
-34 -55 0
-34 -56 0
55 -55 0
56 -56 0
7 -43 0
7 -44 0
43 -43 0
44 -44 0
21 -49 0
21 -50 0
49 -49 0
50 -50 0
35 -55 0
35 -56 0
55 -55 0
56 -56 0
8 -62 -43 0
-8 62 -43 0
8 62 -44 0
-8 -62 -44 0
22 -62 -49 0
-22 62 -49 0
22 62 -50 0
-22 -62 -50 0
36 -62 -55 0
-36 62 -55 0
36 62 -56 0
-36 -62 -56 0
-9 -43 0
-9 -44 0
43 -43 0
44 -44 0
-23 -49 0
-23 -50 0
49 -49 0
50 -50 0
-37 -55 0
-37 -56 0
55 -55 0
56 -56 0
10 -63 -43 0
-10 63 -43 0
10 63 -44 0
-10 -63 -44 0
24 -63 -49 0
-24 63 -49 0
24 63 -50 0
-24 -63 -50 0
38 -63 -55 0
-38 63 -55 0
38 63 -56 0
-38 -63 -56 0
11 -64 -43 0
-11 64 -43 0
11 64 -44 0
-11 -64 -44 0
25 -64 -49 0
-25 64 -49 0
25 64 -50 0
-25 -64 -50 0
39 -64 -55 0
-39 64 -55 0
39 64 -56 0
-39 -64 -56 0
12 -43 0
12 -44 0
43 -43 0
44 -44 0
26 -49 0
26 -50 0
49 -49 0
50 -50 0
40 -55 0
40 -56 0
55 -55 0
56 -56 0
13 -65 -43 0
-13 65 -43 0
13 65 -44 0
-13 -65 -44 0
27 -65 -49 0
-27 65 -49 0
27 65 -50 0
-27 -65 -50 0
41 -65 -55 0
-41 65 -55 0
41 65 -56 0
-41 -65 -56 0
14 -66 -43 0
-14 66 -43 0
14 66 -44 0
-14 -66 -44 0
28 -66 -49 0
-28 66 -49 0
28 66 -50 0
-28 -66 -50 0
42 -66 -55 0
-42 66 -55 0
42 66 -56 0
-42 -66 -56 0
-103 43 0
103 -43 0
-104 44 0
103 -44 0
-103 -43 0
-104 -44 0
-109 43 103 0
109 -43 0
109 -103 0
-110 44 104 0
110 -44 0
110 -104 0
-109 -49 0
-110 -50 0
-115 49 109 0
115 -49 0
115 -109 0
-116 50 110 0
116 -50 0
116 -110 0
-115 -55 0
-116 -56 0
115 0
116 0
1 -67 -45 0
-1 67 -45 0
1 67 -46 0
-1 -67 -46 0
15 -67 -51 0
-15 67 -51 0
15 67 -52 0
-15 -67 -52 0
29 -67 -57 0
-29 67 -57 0
29 67 -58 0
-29 -67 -58 0
2 -45 0
2 -46 0
45 -45 0
46 -46 0
16 -51 0
16 -52 0
51 -51 0
52 -52 0
30 -57 0
30 -58 0
57 -57 0
58 -58 0
3 -45 0
3 -46 0
45 -45 0
46 -46 0
17 -51 0
17 -52 0
51 -51 0
52 -52 0
31 -57 0
31 -58 0
57 -57 0
58 -58 0
4 -45 0
4 -46 0
45 -45 0
46 -46 0
18 -51 0
18 -52 0
51 -51 0
52 -52 0
32 -57 0
32 -58 0
57 -57 0
58 -58 0
5 -68 -45 0
-5 68 -45 0
5 68 -46 0
-5 -68 -46 0
19 -68 -51 0
-19 68 -51 0
19 68 -52 0
-19 -68 -52 0
33 -68 -57 0
-33 68 -57 0
33 68 -58 0
-33 -68 -58 0
-6 -45 0
-6 -46 0
45 -45 0
46 -46 0
-20 -51 0
-20 -52 0
51 -51 0
52 -52 0
-34 -57 0
-34 -58 0
57 -57 0
58 -58 0
7 -69 -45 0
-7 69 -45 0
7 69 -46 0
-7 -69 -46 0
21 -69 -51 0
-21 69 -51 0
21 69 -52 0
-21 -69 -52 0
35 -69 -57 0
-35 69 -57 0
35 69 -58 0
-35 -69 -58 0
8 -45 0
8 -46 0
45 -45 0
46 -46 0
22 -51 0
22 -52 0
51 -51 0
52 -52 0
36 -57 0
36 -58 0
57 -57 0
58 -58 0
-9 -45 0
-9 -46 0
45 -45 0
46 -46 0
-23 -51 0
-23 -52 0
51 -51 0
52 -52 0
-37 -57 0
-37 -58 0
57 -57 0
58 -58 0
10 -70 -45 0
-10 70 -45 0
10 70 -46 0
-10 -70 -46 0
24 -70 -51 0
-24 70 -51 0
24 70 -52 0
-24 -70 -52 0
38 -70 -57 0
-38 70 -57 0
38 70 -58 0
-38 -70 -58 0
11 -45 0
11 -46 0
45 -45 0
46 -46 0
25 -51 0
25 -52 0
51 -51 0
52 -52 0
39 -57 0
39 -58 0
57 -57 0
58 -58 0
12 -45 0
12 -46 0
45 -45 0
46 -46 0
26 -51 0
26 -52 0
51 -51 0
52 -52 0
40 -57 0
40 -58 0
57 -57 0
58 -58 0
13 -45 0
13 -46 0
45 -45 0
46 -46 0
27 -51 0
27 -52 0
51 -51 0
52 -52 0
41 -57 0
41 -58 0
57 -57 0
58 -58 0
14 -45 0
14 -46 0
45 -45 0
46 -46 0
28 -51 0
28 -52 0
51 -51 0
52 -52 0
42 -57 0
42 -58 0
57 -57 0
58 -58 0
-105 45 0
105 -45 0
-106 46 0
105 -46 0
-105 -45 0
-106 -46 0
-111 45 105 0
111 -45 0
111 -105 0
-112 46 106 0
112 -46 0
112 -106 0
-111 -51 0
-112 -52 0
-117 51 111 0
117 -51 0
117 -111 0
-118 52 112 0
118 -52 0
118 -112 0
-117 -57 0
-118 -58 0
117 0
118 0
1 -47 0
1 -48 0
47 -47 0
48 -48 0
15 -53 0
15 -54 0
53 -53 0
54 -54 0
29 -59 0
29 -60 0
59 -59 0
60 -60 0
2 -47 0
2 -48 0
47 -47 0
48 -48 0
16 -53 0
16 -54 0
53 -53 0
54 -54 0
30 -59 0
30 -60 0
59 -59 0
60 -60 0
3 -47 0
3 -48 0
47 -47 0
48 -48 0
17 -53 0
17 -54 0
53 -53 0
54 -54 0
31 -59 0
31 -60 0
59 -59 0
60 -60 0
4 -71 -47 0
-4 71 -47 0
4 71 -48 0
-4 -71 -48 0
18 -71 -53 0
-18 71 -53 0
18 71 -54 0
-18 -71 -54 0
32 -71 -59 0
-32 71 -59 0
32 71 -60 0
-32 -71 -60 0
5 -72 -47 0
-5 72 -47 0
5 72 -48 0
-5 -72 -48 0
19 -72 -53 0
-19 72 -53 0
19 72 -54 0
-19 -72 -54 0
33 -72 -59 0
-33 72 -59 0
33 72 -60 0
-33 -72 -60 0
6 -73 -47 0
-6 73 -47 0
6 73 -48 0
-6 -73 -48 0
20 -73 -53 0
-20 73 -53 0
20 73 -54 0
-20 -73 -54 0
34 -73 -59 0
-34 73 -59 0
34 73 -60 0
-34 -73 -60 0
7 -74 -47 0
-7 74 -47 0
7 74 -48 0
-7 -74 -48 0
21 -74 -53 0
-21 74 -53 0
21 74 -54 0
-21 -74 -54 0
35 -74 -59 0
-35 74 -59 0
35 74 -60 0
-35 -74 -60 0
8 -75 -47 0
-8 75 -47 0
8 75 -48 0
-8 -75 -48 0
22 -75 -53 0
-22 75 -53 0
22 75 -54 0
-22 -75 -54 0
36 -75 -59 0
-36 75 -59 0
36 75 -60 0
-36 -75 -60 0
9 -76 -47 0
-9 76 -47 0
9 76 -48 0
-9 -76 -48 0
23 -76 -53 0
-23 76 -53 0
23 76 -54 0
-23 -76 -54 0
37 -76 -59 0
-37 76 -59 0
37 76 -60 0
-37 -76 -60 0
-10 -47 0
-10 -48 0
47 -47 0
48 -48 0
-24 -53 0
-24 -54 0
53 -53 0
54 -54 0
-38 -59 0
-38 -60 0
59 -59 0
60 -60 0
11 -47 0
11 -48 0
47 -47 0
48 -48 0
25 -53 0
25 -54 0
53 -53 0
54 -54 0
39 -59 0
39 -60 0
59 -59 0
60 -60 0
12 -47 0
12 -48 0
47 -47 0
48 -48 0
26 -53 0
26 -54 0
53 -53 0
54 -54 0
40 -59 0
40 -60 0
59 -59 0
60 -60 0
13 -47 0
13 -48 0
47 -47 0
48 -48 0
27 -53 0
27 -54 0
53 -53 0
54 -54 0
41 -59 0
41 -60 0
59 -59 0
60 -60 0
-14 -47 0
-14 -48 0
47 -47 0
48 -48 0
-28 -53 0
-28 -54 0
53 -53 0
54 -54 0
-42 -59 0
-42 -60 0
59 -59 0
60 -60 0
-107 47 0
107 -47 0
-108 48 0
107 -48 0
-107 -47 0
-108 -48 0
-113 47 107 0
113 -47 0
113 -107 0
-114 48 108 0
114 -48 0
114 -108 0
-113 -53 0
-114 -54 0
-119 53 113 0
119 -53 0
119 -113 0
-120 54 114 0
120 -54 0
120 -114 0
-119 -59 0
-120 -60 0
119 0
120 0
